120
150
39
39
39
33
45
48
97
21
53
36
29
45
72
89
69
29
25
52
36
22
100
28
36
55
38
21
48
26
29
22
45
86
29
25
71
99
51
25
83
67
51
74
92
29
72
78
78
72
69
81
61
34
55
35
45
41
83
96
22
52
45
29
99
81
36
99
48
51
97
53
33
72
78
29
23
89
27
99
89
99
59
49
51
51
99
36
33
36
74
76
64
87
41
63
57
97
57
74
41
53
78
98
36
52
45
45
97
81
39
53
36
45
53
52
89
61
78
72
36
35
